9 24
26 97
11 78
33 178
55 57
8 99
27 122
17 134
19 75
48 113
10 53
50 17
60 47
7 57
23 43
32 166
96 10
3 86
22 36
10 152
26 19
55 3
16 68
2 121
23 42
15 186
49 112
8 76
70 32
70 12
1 186
26 136
2 47
36 141
1 91
8 36
40 54
63 48
12 2
4 88
7 75
82 14
35 84
91 54
36 42
20 172
35 96
39 7
57 45
87 39
5 22
21 32
26 85
31 119
12 175
65 30
32 51
96 5
98 8
18 67
32 38
34 55
25 22
96 5
45 116
35 91
28 79
20 126
15 140
12 113
36 108
16 6
4 190
3 183
42 135
7 104
69 52
39 48
9 186
37 151
79 18
57 19
31 144
20 73
33 121
46 25
25 156
8 144
24 41
10 172
5 17
38 43
8 153
6 111
34 70
47 38
9 56
38 61
84 26
82 30
